 &control
    calculation='scf'
    restart_mode='from_scratch',
    pseudo_dir = './',
    outdir='./',
    prefix='cu',
    tstress = .true.,
    tprnfor = .true.,
    verbosity = 'high',
    iprint = 1
 /
 &system
    ibrav = 2, celldm(1) =7.60804, nat= 2, ntyp= 2,
    ecutwfc = 36.0, ecutrho = 400.0, nspin = 1,
    starting_magnetization(1) = 0.0, starting_magnetization(2) = 0.0,
    occupations='smearing', smearing='gaussian', degauss=0.02
 /
 &electrons
  electron_maxstep=100,
  diago_thr_init=1D-12,
    diagonalization='david'
    conv_thr = 1.0e-8
    mixing_beta = 0.7
 /
#CELL_PARAMETERS
# 0 3.80402 3.80402
# 3.80402 0 3.80402
# 3.80402 3.80402 0
ATOMIC_SPECIES
 Li 6.941  Li.pz-s-rrkjus_psl.0.2.1.UPF
 F  18.998 F.pz-n-kjpaw_psl.0.1.UPF
ATOMIC_POSITIONS
 Li 0.0 0.0 0.0
 F  0.5 0.5 0.5
K_POINTS (automatic)
 8 8 8 0 0 0
