&control
calculation='scf',
restart_mode='from_scratch',
pseudo_dir = './',
outdir='./',
prefix = 'scf_',
tstress = false,
tprnfor = false,
verbosity = 'high'
/
&system
ibrav=0, celldm(1)=1, ecutwfc=36, ecutrho = 400,
occupations = 'smearing', smearing = 'gauss', degauss = 0.001,
nat=3816 ntyp=6
/
&electrons
conv_thr =  1.0d-11,
mixing_beta = 0.7,
electron_maxstep = 100
/
&IONS
ion_dynamics='bfgs',
/
&CELL
cell_dynamics='bfgs',
/
ATOMIC_SPECIES
C  0.0 c_lda_v1.2.uspp.F.UPF
Na 0.0 na_lda_v1.5.uspp.F.UPF
O  0.0 o_lda_v1.2.uspp.F.UPF
N  0.0 n_lda_v1.2.uspp.F.UPF
H  0.0 h_lda_v1.4.uspp.F.UPF
Cd 0.0 cd_lda_v1.uspp.F.UPF
CELL_PARAMETERS
       85.60459344        0.00000000        0.00000000
        0.00000000       85.60459344        0.00000000
        0.00000000        0.00000000       85.60459344
ATOMIC_POSITIONS (crystal)
C          0.10320000         0.20390000         0.06440000
C          0.79610000         0.10320000         0.56440000
C          0.89680000         0.79610000         0.06440000
C          0.20390000         0.89680000         0.56440000
C          0.10320000         0.93560000         0.70390000
C          0.10320000         0.79610000         0.93560000
C          0.10320000         0.06440000         0.29610000
C          0.06440000         0.20390000         0.39680000
C          0.89680000         0.20390000         0.93560000
C          0.93560000         0.20390000         0.60320000
C          0.06440000         0.10320000         0.20390000
C          0.20390000         0.06440000         0.10320000
C          0.79610000         0.93560000         0.10320000
C          0.06440000         0.89680000         0.79610000
C          0.79610000         0.06440000         0.89680000
C          0.93560000         0.89680000         0.20390000
C          0.93560000         0.10320000         0.79610000
C          0.20390000         0.93560000         0.89680000
C          0.20390000         0.10320000         0.43560000
C          0.79610000         0.89680000         0.43560000
C          0.89680000         0.06440000         0.70390000
C          0.89680000         0.93560000         0.29610000
C          0.06440000         0.79610000         0.60320000
C          0.93560000         0.79610000         0.39680000
C          0.10320000         0.70390000         0.56440000
C          0.79610000         0.60320000         0.06440000
C          0.89680000         0.29610000         0.56440000
C          0.20390000         0.39680000         0.06440000
C          0.10320000         0.43560000         0.20390000
C          0.10320000         0.29610000         0.43560000
C          0.10320000         0.56440000         0.79610000
C          0.06440000         0.70390000         0.89680000
C          0.89680000         0.70390000         0.43560000
C          0.93560000         0.70390000         0.10320000
C          0.06440000         0.60320000         0.70390000
C          0.20390000         0.56440000         0.60320000
C          0.79610000         0.43560000         0.60320000
C          0.06440000         0.39680000         0.29610000
C          0.79610000         0.56440000         0.39680000
C          0.93560000         0.39680000         0.70390000
C          0.93560000         0.60320000         0.29610000
C          0.20390000         0.43560000         0.39680000
C          0.20390000         0.60320000         0.93560000
C          0.79610000         0.39680000         0.93560000
C          0.89680000         0.56440000         0.20390000
C          0.89680000         0.43560000         0.79610000
C          0.06440000         0.29610000         0.10320000
C          0.93560000         0.29610000         0.89680000
C          0.60320000         0.20390000         0.56440000
C          0.29610000         0.10320000         0.06440000
C          0.39680000         0.79610000         0.56440000
C          0.70390000         0.89680000         0.06440000
C          0.60320000         0.93560000         0.20390000
C          0.60320000         0.79610000         0.43560000
C          0.60320000         0.06440000         0.79610000
C          0.56440000         0.20390000         0.89680000
C          0.39680000         0.20390000         0.43560000
C          0.43560000         0.20390000         0.10320000
C          0.56440000         0.10320000         0.70390000
C          0.70390000         0.06440000         0.60320000
C          0.29610000         0.93560000         0.60320000
C          0.56440000         0.89680000         0.29610000
C          0.29610000         0.06440000         0.39680000
C          0.43560000         0.89680000         0.70390000
C          0.43560000         0.10320000         0.29610000
C          0.70390000         0.93560000         0.39680000
C          0.70390000         0.10320000         0.93560000
C          0.29610000         0.89680000         0.93560000
C          0.39680000         0.06440000         0.20390000
C          0.39680000         0.93560000         0.79610000
C          0.56440000         0.79610000         0.10320000
C          0.43560000         0.79610000         0.89680000
C          0.60320000         0.70390000         0.06440000
C          0.29610000         0.60320000         0.56440000
C          0.39680000         0.29610000         0.06440000
C          0.70390000         0.39680000         0.56440000
C          0.60320000         0.43560000         0.70390000
C          0.60320000         0.29610000         0.93560000
C          0.60320000         0.56440000         0.29610000
C          0.56440000         0.70390000         0.39680000
C          0.39680000         0.70390000         0.93560000
C          0.43560000         0.70390000         0.60320000
C          0.56440000         0.60320000         0.20390000
C          0.70390000         0.56440000         0.10320000
C          0.29610000         0.43560000         0.10320000
C          0.56440000         0.39680000         0.79610000
C          0.29610000         0.56440000         0.89680000
C          0.43560000         0.39680000         0.20390000
C          0.43560000         0.60320000         0.79610000
C          0.70390000         0.43560000         0.89680000
C          0.70390000         0.60320000         0.43560000
C          0.29610000         0.39680000         0.43560000
C          0.39680000         0.56440000         0.70390000
C          0.39680000         0.43560000         0.29610000
C          0.56440000         0.29610000         0.60320000
C          0.43560000         0.29610000         0.39680000
C          0.89680000         0.79610000         0.93560000
C          0.20390000         0.89680000         0.43560000
C          0.10320000         0.20390000         0.93560000
C          0.79610000         0.10320000         0.43560000
C          0.89680000         0.06440000         0.29610000
C          0.89680000         0.20390000         0.06440000
C          0.89680000         0.93560000         0.70390000
C          0.93560000         0.79610000         0.60320000
C          0.10320000         0.79610000         0.06440000
C          0.06440000         0.79610000         0.39680000
C          0.93560000         0.89680000         0.79610000
C          0.79610000         0.93560000         0.89680000
C          0.20390000         0.06440000         0.89680000
C          0.93560000         0.10320000         0.20390000
C          0.20390000         0.93560000         0.10320000
C          0.06440000         0.10320000         0.79610000
C          0.06440000         0.89680000         0.20390000
C          0.79610000         0.06440000         0.10320000
C          0.79610000         0.89680000         0.56440000
C          0.20390000         0.10320000         0.56440000
C          0.10320000         0.93560000         0.29610000
C          0.10320000         0.06440000         0.70390000
C          0.93560000         0.20390000         0.39680000
C          0.06440000         0.20390000         0.60320000
C          0.89680000         0.29610000         0.43560000
C          0.20390000         0.39680000         0.93560000
C          0.10320000         0.70390000         0.43560000
C          0.79610000         0.60320000         0.93560000
C          0.89680000         0.56440000         0.79610000
C          0.89680000         0.70390000         0.56440000
C          0.89680000         0.43560000         0.20390000
C          0.93560000         0.29610000         0.10320000
C          0.10320000         0.29610000         0.56440000
C          0.06440000         0.29610000         0.89680000
C          0.93560000         0.39680000         0.29610000
C          0.79610000         0.43560000         0.39680000
C          0.20390000         0.56440000         0.39680000
C          0.93560000         0.60320000         0.70390000
C          0.20390000         0.43560000         0.60320000
C          0.06440000         0.60320000         0.29610000
C          0.06440000         0.39680000         0.70390000
C          0.79610000         0.56440000         0.60320000
C          0.79610000         0.39680000         0.06440000
C          0.20390000         0.60320000         0.06440000
C          0.10320000         0.43560000         0.79610000
C          0.10320000         0.56440000         0.20390000
C          0.93560000         0.70390000         0.89680000
C          0.06440000         0.70390000         0.10320000
C          0.39680000         0.79610000         0.43560000
C          0.70390000         0.89680000         0.93560000
C          0.60320000         0.20390000         0.43560000
C          0.29610000         0.10320000         0.93560000
C          0.39680000         0.06440000         0.79610000
C          0.39680000         0.20390000         0.56440000
C          0.39680000         0.93560000         0.20390000
C          0.43560000         0.79610000         0.10320000
C          0.60320000         0.79610000         0.56440000
C          0.56440000         0.79610000         0.89680000
C          0.43560000         0.89680000         0.29610000
C          0.29610000         0.93560000         0.39680000
C          0.70390000         0.06440000         0.39680000
C          0.43560000         0.10320000         0.70390000
C          0.70390000         0.93560000         0.60320000
C          0.56440000         0.10320000         0.29610000
C          0.56440000         0.89680000         0.70390000
C          0.29610000         0.06440000         0.60320000
C          0.29610000         0.89680000         0.06440000
C          0.70390000         0.10320000         0.06440000
C          0.60320000         0.93560000         0.79610000
C          0.60320000         0.06440000         0.20390000
C          0.43560000         0.20390000         0.89680000
C          0.56440000         0.20390000         0.10320000
C          0.39680000         0.29610000         0.93560000
C          0.70390000         0.39680000         0.43560000
C          0.60320000         0.70390000         0.93560000
C          0.29610000         0.60320000         0.43560000
C          0.39680000         0.56440000         0.29610000
C          0.39680000         0.70390000         0.06440000
C          0.39680000         0.43560000         0.70390000
C          0.43560000         0.29610000         0.60320000
C          0.60320000         0.29610000         0.06440000
C          0.56440000         0.29610000         0.39680000
C          0.43560000         0.39680000         0.79610000
C          0.29610000         0.43560000         0.89680000
C          0.70390000         0.56440000         0.89680000
C          0.43560000         0.60320000         0.20390000
C          0.70390000         0.43560000         0.10320000
C          0.56440000         0.60320000         0.79610000
C          0.56440000         0.39680000         0.20390000
C          0.29610000         0.56440000         0.10320000
C          0.29610000         0.39680000         0.56440000
C          0.70390000         0.60320000         0.56440000
C          0.60320000         0.43560000         0.29610000
C          0.60320000         0.56440000         0.70390000
C          0.43560000         0.70390000         0.39680000
C          0.56440000         0.70390000         0.60320000
C          0.12487000         0.17842000         0.06151000
C          0.82158000         0.12487000         0.56151000
C          0.87513000         0.82158000         0.06151000
C          0.17842000         0.87513000         0.56151000
C          0.12487000         0.93849000         0.67842000
C          0.12487000         0.82158000         0.93849000
C          0.12487000         0.06151000         0.32158000
C          0.06151000         0.17842000         0.37513000
C          0.87513000         0.17842000         0.93849000
C          0.93849000         0.17842000         0.62487000
C          0.06151000         0.12487000         0.17842000
C          0.17842000         0.06151000         0.12487000
C          0.82158000         0.93849000         0.12487000
C          0.06151000         0.87513000         0.82158000
C          0.82158000         0.06151000         0.87513000
C          0.93849000         0.87513000         0.17842000
C          0.93849000         0.12487000         0.82158000
C          0.17842000         0.93849000         0.87513000
C          0.17842000         0.12487000         0.43849000
C          0.82158000         0.87513000         0.43849000
C          0.87513000         0.06151000         0.67842000
C          0.87513000         0.93849000         0.32158000
C          0.06151000         0.82158000         0.62487000
C          0.93849000         0.82158000         0.37513000
C          0.12487000         0.67842000         0.56151000
C          0.82158000         0.62487000         0.06151000
C          0.87513000         0.32158000         0.56151000
C          0.17842000         0.37513000         0.06151000
C          0.12487000         0.43849000         0.17842000
C          0.12487000         0.32158000         0.43849000
C          0.12487000         0.56151000         0.82158000
C          0.06151000         0.67842000         0.87513000
C          0.87513000         0.67842000         0.43849000
C          0.93849000         0.67842000         0.12487000
C          0.06151000         0.62487000         0.67842000
C          0.17842000         0.56151000         0.62487000
C          0.82158000         0.43849000         0.62487000
C          0.06151000         0.37513000         0.32158000
C          0.82158000         0.56151000         0.37513000
C          0.93849000         0.37513000         0.67842000
C          0.93849000         0.62487000         0.32158000
C          0.17842000         0.43849000         0.37513000
C          0.17842000         0.62487000         0.93849000
C          0.82158000         0.37513000         0.93849000
C          0.87513000         0.56151000         0.17842000
C          0.87513000         0.43849000         0.82158000
C          0.06151000         0.32158000         0.12487000
C          0.93849000         0.32158000         0.87513000
C          0.62487000         0.17842000         0.56151000
C          0.32158000         0.12487000         0.06151000
C          0.37513000         0.82158000         0.56151000
C          0.67842000         0.87513000         0.06151000
C          0.62487000         0.93849000         0.17842000
C          0.62487000         0.82158000         0.43849000
C          0.62487000         0.06151000         0.82158000
C          0.56151000         0.17842000         0.87513000
C          0.37513000         0.17842000         0.43849000
C          0.43849000         0.17842000         0.12487000
C          0.56151000         0.12487000         0.67842000
C          0.67842000         0.06151000         0.62487000
C          0.32158000         0.93849000         0.62487000
C          0.56151000         0.87513000         0.32158000
C          0.32158000         0.06151000         0.37513000
C          0.43849000         0.87513000         0.67842000
C          0.43849000         0.12487000         0.32158000
C          0.67842000         0.93849000         0.37513000
C          0.67842000         0.12487000         0.93849000
C          0.32158000         0.87513000         0.93849000
C          0.37513000         0.06151000         0.17842000
C          0.37513000         0.93849000         0.82158000
C          0.56151000         0.82158000         0.12487000
C          0.43849000         0.82158000         0.87513000
C          0.62487000         0.67842000         0.06151000
C          0.32158000         0.62487000         0.56151000
C          0.37513000         0.32158000         0.06151000
C          0.67842000         0.37513000         0.56151000
C          0.62487000         0.43849000         0.67842000
C          0.62487000         0.32158000         0.93849000
C          0.62487000         0.56151000         0.32158000
C          0.56151000         0.67842000         0.37513000
C          0.37513000         0.67842000         0.93849000
C          0.43849000         0.67842000         0.62487000
C          0.56151000         0.62487000         0.17842000
C          0.67842000         0.56151000         0.12487000
C          0.32158000         0.43849000         0.12487000
C          0.56151000         0.37513000         0.82158000
C          0.32158000         0.56151000         0.87513000
C          0.43849000         0.37513000         0.17842000
C          0.43849000         0.62487000         0.82158000
C          0.67842000         0.43849000         0.87513000
C          0.67842000         0.62487000         0.43849000
C          0.32158000         0.37513000         0.43849000
C          0.37513000         0.56151000         0.67842000
C          0.37513000         0.43849000         0.32158000
C          0.56151000         0.32158000         0.62487000
C          0.43849000         0.32158000         0.37513000
C          0.87513000         0.82158000         0.93849000
C          0.17842000         0.87513000         0.43849000
C          0.12487000         0.17842000         0.93849000
C          0.82158000         0.12487000         0.43849000
C          0.87513000         0.06151000         0.32158000
C          0.87513000         0.17842000         0.06151000
C          0.87513000         0.93849000         0.67842000
C          0.93849000         0.82158000         0.62487000
C          0.12487000         0.82158000         0.06151000
C          0.06151000         0.82158000         0.37513000
C          0.93849000         0.87513000         0.82158000
C          0.82158000         0.93849000         0.87513000
C          0.17842000         0.06151000         0.87513000
C          0.93849000         0.12487000         0.17842000
C          0.17842000         0.93849000         0.12487000
C          0.06151000         0.12487000         0.82158000
C          0.06151000         0.87513000         0.17842000
C          0.82158000         0.06151000         0.12487000
C          0.82158000         0.87513000         0.56151000
C          0.17842000         0.12487000         0.56151000
C          0.12487000         0.93849000         0.32158000
C          0.12487000         0.06151000         0.67842000
C          0.93849000         0.17842000         0.37513000
C          0.06151000         0.17842000         0.62487000
C          0.87513000         0.32158000         0.43849000
C          0.17842000         0.37513000         0.93849000
C          0.12487000         0.67842000         0.43849000
C          0.82158000         0.62487000         0.93849000
C          0.87513000         0.56151000         0.82158000
C          0.87513000         0.67842000         0.56151000
C          0.87513000         0.43849000         0.17842000
C          0.93849000         0.32158000         0.12487000
C          0.12487000         0.32158000         0.56151000
C          0.06151000         0.32158000         0.87513000
C          0.93849000         0.37513000         0.32158000
C          0.82158000         0.43849000         0.37513000
C          0.17842000         0.56151000         0.37513000
C          0.93849000         0.62487000         0.67842000
C          0.17842000         0.43849000         0.62487000
C          0.06151000         0.62487000         0.32158000
C          0.06151000         0.37513000         0.67842000
C          0.82158000         0.56151000         0.62487000
C          0.82158000         0.37513000         0.06151000
C          0.17842000         0.62487000         0.06151000
C          0.12487000         0.43849000         0.82158000
C          0.12487000         0.56151000         0.17842000
C          0.93849000         0.67842000         0.87513000
C          0.06151000         0.67842000         0.12487000
C          0.37513000         0.82158000         0.43849000
C          0.67842000         0.87513000         0.93849000
C          0.62487000         0.17842000         0.43849000
C          0.32158000         0.12487000         0.93849000
C          0.37513000         0.06151000         0.82158000
C          0.37513000         0.17842000         0.56151000
C          0.37513000         0.93849000         0.17842000
C          0.43849000         0.82158000         0.12487000
C          0.62487000         0.82158000         0.56151000
C          0.56151000         0.82158000         0.87513000
C          0.43849000         0.87513000         0.32158000
C          0.32158000         0.93849000         0.37513000
C          0.67842000         0.06151000         0.37513000
C          0.43849000         0.12487000         0.67842000
C          0.67842000         0.93849000         0.62487000
C          0.56151000         0.12487000         0.32158000
C          0.56151000         0.87513000         0.67842000
C          0.32158000         0.06151000         0.62487000
C          0.32158000         0.87513000         0.06151000
C          0.67842000         0.12487000         0.06151000
C          0.62487000         0.93849000         0.82158000
C          0.62487000         0.06151000         0.17842000
C          0.43849000         0.17842000         0.87513000
C          0.56151000         0.17842000         0.12487000
C          0.37513000         0.32158000         0.93849000
C          0.67842000         0.37513000         0.43849000
C          0.62487000         0.67842000         0.93849000
C          0.32158000         0.62487000         0.43849000
C          0.37513000         0.56151000         0.32158000
C          0.37513000         0.67842000         0.06151000
C          0.37513000         0.43849000         0.67842000
C          0.43849000         0.32158000         0.62487000
C          0.62487000         0.32158000         0.06151000
C          0.56151000         0.32158000         0.37513000
C          0.43849000         0.37513000         0.82158000
C          0.32158000         0.43849000         0.87513000
C          0.67842000         0.56151000         0.87513000
C          0.43849000         0.62487000         0.17842000
C          0.67842000         0.43849000         0.12487000
C          0.56151000         0.62487000         0.82158000
C          0.56151000         0.37513000         0.17842000
C          0.32158000         0.56151000         0.12487000
C          0.32158000         0.37513000         0.56151000
C          0.67842000         0.62487000         0.56151000
C          0.62487000         0.43849000         0.32158000
C          0.62487000         0.56151000         0.67842000
C          0.43849000         0.67842000         0.37513000
C          0.56151000         0.67842000         0.62487000
C          0.14422000         0.17078000         0.08406000
C          0.82922000         0.14422000         0.58406000
C          0.85578000         0.82922000         0.08406000
C          0.17078000         0.85578000         0.58406000
C          0.14422000         0.91594000         0.67078000
C          0.14422000         0.82922000         0.91594000
C          0.14422000         0.08406000         0.32922000
C          0.08406000         0.17078000         0.35578000
C          0.85578000         0.17078000         0.91594000
C          0.91594000         0.17078000         0.64422000
C          0.08406000         0.14422000         0.17078000
C          0.17078000         0.08406000         0.14422000
C          0.82922000         0.91594000         0.14422000
C          0.08406000         0.85578000         0.82922000
C          0.82922000         0.08406000         0.85578000
C          0.91594000         0.85578000         0.17078000
C          0.91594000         0.14422000         0.82922000
C          0.17078000         0.91594000         0.85578000
C          0.17078000         0.14422000         0.41594000
C          0.82922000         0.85578000         0.41594000
C          0.85578000         0.08406000         0.67078000
C          0.85578000         0.91594000         0.32922000
C          0.08406000         0.82922000         0.64422000
C          0.91594000         0.82922000         0.35578000
C          0.14422000         0.67078000         0.58406000
C          0.82922000         0.64422000         0.08406000
C          0.85578000         0.32922000         0.58406000
C          0.17078000         0.35578000         0.08406000
C          0.14422000         0.41594000         0.17078000
C          0.14422000         0.32922000         0.41594000
C          0.14422000         0.58406000         0.82922000
C          0.08406000         0.67078000         0.85578000
C          0.85578000         0.67078000         0.41594000
C          0.91594000         0.67078000         0.14422000
C          0.08406000         0.64422000         0.67078000
C          0.17078000         0.58406000         0.64422000
C          0.82922000         0.41594000         0.64422000
C          0.08406000         0.35578000         0.32922000
C          0.82922000         0.58406000         0.35578000
C          0.91594000         0.35578000         0.67078000
C          0.91594000         0.64422000         0.32922000
C          0.17078000         0.41594000         0.35578000
C          0.17078000         0.64422000         0.91594000
C          0.82922000         0.35578000         0.91594000
C          0.85578000         0.58406000         0.17078000
C          0.85578000         0.41594000         0.82922000
C          0.08406000         0.32922000         0.14422000
C          0.91594000         0.32922000         0.85578000
C          0.64422000         0.17078000         0.58406000
C          0.32922000         0.14422000         0.08406000
C          0.35578000         0.82922000         0.58406000
C          0.67078000         0.85578000         0.08406000
C          0.64422000         0.91594000         0.17078000
C          0.64422000         0.82922000         0.41594000
C          0.64422000         0.08406000         0.82922000
C          0.58406000         0.17078000         0.85578000
C          0.35578000         0.17078000         0.41594000
C          0.41594000         0.17078000         0.14422000
C          0.58406000         0.14422000         0.67078000
C          0.67078000         0.08406000         0.64422000
C          0.32922000         0.91594000         0.64422000
C          0.58406000         0.85578000         0.32922000
C          0.32922000         0.08406000         0.35578000
C          0.41594000         0.85578000         0.67078000
C          0.41594000         0.14422000         0.32922000
C          0.67078000         0.91594000         0.35578000
C          0.67078000         0.14422000         0.91594000
C          0.32922000         0.85578000         0.91594000
C          0.35578000         0.08406000         0.17078000
C          0.35578000         0.91594000         0.82922000
C          0.58406000         0.82922000         0.14422000
C          0.41594000         0.82922000         0.85578000
C          0.64422000         0.67078000         0.08406000
C          0.32922000         0.64422000         0.58406000
C          0.35578000         0.32922000         0.08406000
C          0.67078000         0.35578000         0.58406000
C          0.64422000         0.41594000         0.67078000
C          0.64422000         0.32922000         0.91594000
C          0.64422000         0.58406000         0.32922000
C          0.58406000         0.67078000         0.35578000
C          0.35578000         0.67078000         0.91594000
C          0.41594000         0.67078000         0.64422000
C          0.58406000         0.64422000         0.17078000
C          0.67078000         0.58406000         0.14422000
C          0.32922000         0.41594000         0.14422000
C          0.58406000         0.35578000         0.82922000
C          0.32922000         0.58406000         0.85578000
C          0.41594000         0.35578000         0.17078000
C          0.41594000         0.64422000         0.82922000
C          0.67078000         0.41594000         0.85578000
C          0.67078000         0.64422000         0.41594000
C          0.32922000         0.35578000         0.41594000
C          0.35578000         0.58406000         0.67078000
C          0.35578000         0.41594000         0.32922000
C          0.58406000         0.32922000         0.64422000
C          0.41594000         0.32922000         0.35578000
C          0.85578000         0.82922000         0.91594000
C          0.17078000         0.85578000         0.41594000
C          0.14422000         0.17078000         0.91594000
C          0.82922000         0.14422000         0.41594000
C          0.85578000         0.08406000         0.32922000
C          0.85578000         0.17078000         0.08406000